p cnf 190 291
-7 12 0
-12 7 0
-8 17 0
-12 17 0
8 12 -17 0
-8 -12 22 0
-22 8 0
-22 12 0
-22 18 0
22 -18 0
-9 26 0
-17 26 0
9 17 -26 0
-9 -17 31 0
-31 9 0
-31 17 0
-31 27 0
-18 27 0
31 18 -27 0
-9 -18 32 0
-32 9 0
-32 18 0
-32 28 0
32 -28 0
-10 35 0
-26 35 0
10 26 -35 0
-10 -26 40 0
-40 10 0
-40 26 0
-40 36 0
-27 36 0
40 27 -36 0
-10 -27 41 0
-41 10 0
-41 27 0
-41 37 0
-28 37 0
41 28 -37 0
-10 -28 42 0
-42 10 0
-42 28 0
-42 38 0
42 -38 0
-11 2 0
-35 2 0
11 35 -2 0
-11 -35 44 0
-44 11 0
-44 35 0
-44 3 0
-36 3 0
44 36 -3 0
-11 -36 45 0
-45 11 0
-45 36 0
-45 4 0
-37 4 0
45 37 -4 0
-11 -37 46 0
-46 11 0
-46 37 0
-46 5 0
-38 5 0
46 38 -5 0
-11 -38 47 0
-47 11 0
-47 38 0
-47 6 0
47 -6 0
-53 58 0
-58 53 0
-54 63 0
-58 63 0
54 58 -63 0
-54 -58 68 0
-68 54 0
-68 58 0
-68 64 0
68 -64 0
-55 72 0
-63 72 0
55 63 -72 0
-55 -63 77 0
-77 55 0
-77 63 0
-77 73 0
-64 73 0
77 64 -73 0
-55 -64 78 0
-78 55 0
-78 64 0
-78 74 0
78 -74 0
-56 81 0
-72 81 0
56 72 -81 0
-56 -72 86 0
-86 56 0
-86 72 0
-86 82 0
-73 82 0
86 73 -82 0
-56 -73 87 0
-87 56 0
-87 73 0
-87 83 0
-74 83 0
87 74 -83 0
-56 -74 88 0
-88 56 0
-88 74 0
-88 84 0
88 -84 0
-57 48 0
-81 48 0
57 81 -48 0
-57 -81 90 0
-90 57 0
-90 81 0
-90 49 0
-82 49 0
90 82 -49 0
-57 -82 91 0
-91 57 0
-91 82 0
-91 50 0
-83 50 0
91 83 -50 0
-57 -83 92 0
-92 57 0
-92 83 0
-92 51 0
-84 51 0
92 84 -51 0
-57 -84 93 0
-93 57 0
-93 84 0
-93 52 0
93 -52 0
-99 104 0
-104 99 0
-100 109 0
-104 109 0
100 104 -109 0
-100 -104 114 0
-114 100 0
-114 104 0
-114 110 0
114 -110 0
-101 118 0
-109 118 0
101 109 -118 0
-101 -109 123 0
-123 101 0
-123 109 0
-123 119 0
-110 119 0
123 110 -119 0
-101 -110 124 0
-124 101 0
-124 110 0
-124 120 0
124 -120 0
-102 127 0
-118 127 0
102 118 -127 0
-102 -118 132 0
-132 102 0
-132 118 0
-132 128 0
-119 128 0
132 119 -128 0
-102 -119 133 0
-133 102 0
-133 119 0
-133 129 0
-120 129 0
133 120 -129 0
-102 -120 134 0
-134 102 0
-134 120 0
-134 130 0
134 -130 0
-103 94 0
-127 94 0
103 127 -94 0
-103 -127 136 0
-136 103 0
-136 127 0
-136 95 0
-128 95 0
136 128 -95 0
-103 -128 137 0
-137 103 0
-137 128 0
-137 96 0
-129 96 0
137 129 -96 0
-103 -129 138 0
-138 103 0
-138 129 0
-138 97 0
-130 97 0
138 130 -97 0
-103 -130 139 0
-139 103 0
-139 130 0
-139 98 0
139 -98 0
-145 150 0
-150 145 0
-146 155 0
-150 155 0
146 150 -155 0
-146 -150 160 0
-160 146 0
-160 150 0
-160 156 0
160 -156 0
-147 164 0
-155 164 0
147 155 -164 0
-147 -155 169 0
-169 147 0
-169 155 0
-169 165 0
-156 165 0
169 156 -165 0
-147 -156 170 0
-170 147 0
-170 156 0
-170 166 0
170 -166 0
-148 173 0
-164 173 0
148 164 -173 0
-148 -164 178 0
-178 148 0
-178 164 0
-178 174 0
-165 174 0
178 165 -174 0
-148 -165 179 0
-179 148 0
-179 165 0
-179 175 0
-166 175 0
179 166 -175 0
-148 -166 180 0
-180 148 0
-180 166 0
-180 176 0
180 -176 0
-149 140 0
-173 140 0
149 173 -140 0
-149 -173 182 0
-182 149 0
-182 173 0
-182 141 0
-174 141 0
182 174 -141 0
-149 -174 183 0
-183 149 0
-183 174 0
-183 142 0
-175 142 0
183 175 -142 0
-149 -175 184 0
-184 149 0
-184 175 0
-184 143 0
-176 143 0
184 176 -143 0
-149 -176 185 0
-185 149 0
-185 176 0
-185 144 0
185 -144 0
2 48 94 140 186 0
-2 -48 -94 -140 186 0
3 49 95 141 187 0
-3 -49 -95 -141 187 0
4 50 96 142 188 0
-4 -50 -96 -142 188 0
5 51 97 143 189 0
-5 -51 -97 -143 189 0
6 52 98 144 190 0
-6 -52 -98 -144 190 0
-186 -187 -188 -189 -190 1 0
